\ENCODING=ISO-8859-1
\Problem name: IloCplex

Minimize
 obj: y1 + y2 + y3 + y4 + y5 + y6 + y7 + y8 + y9 + y10 + y11 + y12 + y13
Subject To
 c1:  - 14 y1 + f_0_1 <= 0
 c2:  - 14 y2 + f_0_2 <= 0
 c3:  - 14 y3 + f_0_3 <= 0
 c4:  - 14 y4 + f_0_4 <= 0
 c5:  - 14 y5 + f_0_5 <= 0
 c6:  - 14 y6 + f_0_6 <= 0
 c7:  - 14 y7 + f_0_7 <= 0
 c8:  - 14 y8 + f_0_8 <= 0
 c9:  - 14 y9 + f_0_9 <= 0
 c10: - 14 y10 + f_0_10 <= 0
 c11: - 14 y11 + f_0_11 <= 0
 c12: - 14 y12 + f_0_12 <= 0
 c13: - 14 y13 + f_0_13 <= 0
 c14: f_0_1 + f_2_1 + f_12_1 - f_1_2 - f_1_12 - f_1_0  = 1
 c15: f_0_2 - f_2_1 + f_1_2 + f_3_2 - f_2_3 - f_2_0  = 1
 c16: f_0_3 - f_3_2 + f_2_3 + f_4_3 - f_3_4 - f_3_0  = 1
 c17: f_0_4 - f_4_3 + f_3_4 + f_5_4 - f_4_5 - f_4_0  = 1
 c18: f_0_5 - f_5_4 + f_4_5 + f_6_5 + f_8_5 + f_9_5 + f_11_5 + f_13_5 - f_5_6
      - f_5_8 - f_5_9 - f_5_11 - f_5_13 - f_5_0  = 1
 c19: f_0_6 - f_6_5 + f_5_6 + f_7_6 - f_6_7 - f_6_0  = 1
 c20: f_0_7 - f_7_6 + f_6_7 + f_8_7 - f_7_8 - f_7_0  = 1
 c21: f_0_8 - f_8_5 + f_5_8 - f_8_7 + f_7_8 + f_9_8 - f_8_9 - f_8_0  = 1
 c22: f_0_9 - f_9_5 + f_5_9 - f_9_8 + f_8_9 + f_10_9 - f_9_10 - f_9_0  = 1
 c23: f_0_10 - f_10_9 + f_9_10 + f_11_10 - f_10_11 - f_10_0  = 1
 c24: f_0_11 - f_11_5 + f_5_11 - f_11_10 + f_10_11 + f_12_11 - f_11_12 - f_11_0
       = 1
 c25: f_0_12 - f_12_1 + f_1_12 - f_12_11 + f_11_12 + f_13_12 - f_12_13 - f_12_0
       = 1
 c26: f_0_13 - f_13_5 + f_5_13 - f_13_12 + f_12_13 - f_13_0  = 1
 c27: f_1_2 - 14 z7 <= 0
 c28: f_2_1 - 14 z7 <= 0
 c29: f_1_12 - 14 z7 <= 0
 c30: f_12_1 - 14 z7 <= 0
 c31: f_2_3 - 14 z3 <= 0
 c32: f_3_2 - 14 z3 <= 0
 c33: f_3_4 - 14 z3 <= 0
 c34: f_4_3 - 14 z3 <= 0
 c35: f_4_5 - 14 z2 <= 0
 c36: f_5_4 - 14 z2 <= 0
 c37: f_5_6 - 14 z5 <= 0
 c38: f_6_5 - 14 z5 <= 0
 c39: f_5_8 - 14 z4 <= 0
 c40: f_8_5 - 14 z4 <= 0
 c41: f_5_9 - 14 z3 <= 0
 c42: f_9_5 - 14 z3 <= 0
 c43: f_5_11 - 14 z2 <= 0
 c44: f_11_5 - 14 z2 <= 0
 c45: f_5_13 - 14 z5 <= 0
 c46: f_13_5 - 14 z5 <= 0
 c47: f_6_7 - 14 z6 <= 0
 c48: f_7_6 - 14 z6 <= 0
 c49: f_7_8 - 14 z4 <= 0
 c50: f_8_7 - 14 z4 <= 0
 c51: f_8_9 - 14 z0 <= 0
 c52: f_9_8 - 14 z0 <= 0
 c53: f_9_10 - 14 z1 <= 0
 c54: f_10_9 - 14 z1 <= 0
 c55: f_10_11 - 14 z6 <= 0
 c56: f_11_10 - 14 z6 <= 0
 c57: f_11_12 - 14 z0 <= 0
 c58: f_12_11 - 14 z0 <= 0
 c59: f_12_13 - 14 z1 <= 0
 c60: f_13_12 - 14 z1 <= 0
 c61: f_0_1 - 14 z8 <= 0
 c62: f_1_0 - 14 z8 <= 0
 c63: f_0_2 - 14 z9 <= 0
 c64: f_2_0 - 14 z9 <= 0
 c65: f_0_3 - 14 z10 <= 0
 c66: f_3_0 - 14 z10 <= 0
 c67: f_0_4 - 14 z11 <= 0
 c68: f_4_0 - 14 z11 <= 0
 c69: f_0_5 - 14 z12 <= 0
 c70: f_5_0 - 14 z12 <= 0
 c71: f_0_6 - 14 z13 <= 0
 c72: f_6_0 - 14 z13 <= 0
 c73: f_0_7 - 14 z14 <= 0
 c74: f_7_0 - 14 z14 <= 0
 c75: f_0_8 - 14 z15 <= 0
 c76: f_8_0 - 14 z15 <= 0
 c77: f_0_9 - 14 z16 <= 0
 c78: f_9_0 - 14 z16 <= 0
 c79: f_0_10 - 14 z17 <= 0
 c80: f_10_0 - 14 z17 <= 0
 c81: f_0_11 - 14 z18 <= 0
 c82: f_11_0 - 14 z18 <= 0
 c83: f_0_12 - 14 z19 <= 0
 c84: f_12_0 - 14 z19 <= 0
 c85: f_0_13 - 14 z20 <= 0
 c86: f_13_0 - 14 z20 <= 0
 c87: z7 + z3 + z2 + z5 + z4 + z6 + z0 + z1 <= 4
Bounds
 0 <= y1 <= 1
 0 <= y2 <= 1
 0 <= y3 <= 1
 0 <= y4 <= 1
 0 <= y5 <= 1
 0 <= y6 <= 1
 0 <= y7 <= 1
 0 <= y8 <= 1
 0 <= y9 <= 1
 0 <= y10 <= 1
 0 <= y11 <= 1
 0 <= y12 <= 1
 0 <= y13 <= 1
 0 <= z7 <= 1
 0 <= z3 <= 1
 0 <= z2 <= 1
 0 <= z5 <= 1
 0 <= z4 <= 1
 0 <= z6 <= 1
 0 <= z0 <= 1
 0 <= z1 <= 1
 0 <= z8 <= 1
 0 <= z9 <= 1
 0 <= z10 <= 1
 0 <= z11 <= 1
 0 <= z12 <= 1
 0 <= z13 <= 1
 0 <= z14 <= 1
 0 <= z15 <= 1
 0 <= z16 <= 1
 0 <= z17 <= 1
 0 <= z18 <= 1
 0 <= z19 <= 1
 0 <= z20 <= 1
Binaries
 y1  y2  y3  y4  y5  y6  y7  y8  y9  y10  y11  y12  y13  z7  z3  z2  z5  z4 
 z6  z0  z1  z8  z9  z10  z11  z12  z13  z14  z15  z16  z17  z18  z19  z20 
End
